id=[11929] dblock_code=[44089-ICSD] formula=[As2 Zn3] sg_name=[I 41 c d]
  -1639.90827578
    -0.4072477181     0.4072442605     0.8174970388
     0.4072477181    -0.4072442605     0.8174970388
     0.4072477181     0.4072442605    -0.8174970388
  32  48
direct
     0.8780000000     0.1199000000     0.2529000000  As
     0.8699000000     0.1170000000     0.7419000000  As
     0.8751000000     0.6170000000     0.2471000000  As
     0.6230000000     0.3703000000     0.2437000000  As
     0.2489000000     0.2489000000    -0.0000000000  As
     0.7489000000     0.7489000000    -0.0000000000  As
     0.4997000000     0.4997000000    -0.0000000000  As
     0.7497000000     0.2497000000     0.5000000000  As
     0.9989000000     0.4989000000     0.5000000000  As
     0.9997000000     0.9997000000    -0.0000000000  As
     0.3751000000     0.1280000000     0.2581000000  As
     0.7442000000     0.2435000000     0.9895000000  As
     0.7540000000     0.7435000000     0.4993000000  As
     0.4935000000     0.4942000000     0.4895000000  As
     0.5047000000     0.9942000000     0.0007000000  As
     0.3670000000     0.6199000000     0.2419000000  As
     0.6203000000     0.3730000000     0.7437000000  As
     0.1203000000     0.3766000000     0.2473000000  As
     0.6293000000     0.8766000000     0.2563000000  As
     0.3780000000     0.1251000000     0.7581000000  As
     0.8670000000     0.6251000000     0.7471000000  As
     0.0047000000     0.0040000000     0.5105000000  As
     0.9935000000     0.5040000000     0.9993000000  As
     0.2442000000     0.2547000000     0.5007000000  As
     0.2540000000     0.7547000000     0.0105000000  As
     0.6266000000     0.8703000000     0.7473000000  As
     0.2497000000     0.7497000000     0.5000000000  As
     0.4989000000     0.9989000000     0.5000000000  As
     0.1266000000     0.3793000000     0.7563000000  As
     0.1230000000     0.8793000000     0.2527000000  As
     0.3699000000     0.6280000000     0.7529000000  As
     0.1293000000     0.8730000000     0.7527000000  As
     0.8173000000     0.0868000000     0.0257000000  Zn
     0.8122000000     0.0562000000     0.4780000000  Zn
     0.5416000000     0.0673000000     0.2305000000  Zn
     0.9580000000     0.6942000000     0.0246000000  Zn
     0.5842000000     0.3282000000     0.0220000000  Zn
     0.9158000000     0.4382000000     0.2472000000  Zn
     0.7120000000     0.2096000000     0.2778000000  Zn
     0.9596000000     0.1818000000     0.9976000000  Zn
     0.6842000000     0.6818000000     0.2222000000  Zn
     0.5411000000     0.0403000000     0.7212000000  Zn
     0.8191000000     0.5403000000     0.4992000000  Zn
     0.2903000000     0.2911000000     0.2212000000  Zn
     0.5699000000     0.7911000000     0.0008000000  Zn
     0.9318000000     0.4342000000     0.7222000000  Zn
     0.4158000000     0.1686000000     0.4776000000  Zn
     0.0842000000     0.0622000000     0.2560000000  Zn
     0.4580000000     0.4334000000     0.2638000000  Zn
     0.8368000000     0.3111000000     0.7695000000  Zn
     0.9186000000     0.9410000000     0.2528000000  Zn
     0.1882000000     0.4410000000     0.0224000000  Zn
     0.5782000000     0.3342000000     0.5220000000  Zn
     0.9442000000     0.7080000000     0.5246000000  Zn
     0.6834000000     0.2080000000     0.7638000000  Zn
     0.5611000000     0.5868000000     0.2695000000  Zn
     0.3173000000     0.2916000000     0.7305000000  Zn
     0.1834000000     0.4196000000     0.4754000000  Zn
     0.4442000000     0.9196000000     0.2362000000  Zn
     0.0782000000     0.5562000000     0.2440000000  Zn
     0.6882000000     0.6658000000     0.7472000000  Zn
     0.4186000000     0.1658000000     0.9776000000  Zn
     0.3368000000     0.5673000000     0.5257000000  Zn
     0.1696000000     0.1942000000     0.7362000000  Zn
     0.8062000000     0.8282000000     0.7440000000  Zn
     0.6910000000     0.9382000000     0.5224000000  Zn
     0.4318000000     0.7096000000     0.4976000000  Zn
     0.0699000000     0.0691000000     0.7788000000  Zn
     0.7903000000     0.5691000000     0.9992000000  Zn
     0.0411000000     0.3199000000     0.5008000000  Zn
     0.3191000000     0.8199000000     0.2788000000  Zn
     0.4596000000     0.4620000000     0.7778000000  Zn
     0.1842000000     0.9620000000     0.0024000000  Zn
     0.2120000000     0.9342000000     0.5024000000  Zn
     0.1910000000     0.6686000000     0.7528000000  Zn
     0.3062000000     0.5622000000     0.9780000000  Zn
     0.6696000000     0.9334000000     0.9754000000  Zn
     0.0416000000     0.8111000000     0.4743000000  Zn
     0.3122000000     0.8342000000     0.7560000000  Zn
     0.0611000000     0.7916000000     0.9743000000  Zn
